benchmark/results/graph__10-1000-0.10-02_8/graph__10-1000-0.10-02_8_Quinton_Monolithic.lp
\ This file has been generated by DOcplex
\ ENCODING=ISO-8859-1
\Problem name: Quinton Monolithic

Maximize
 obj: tau
Subject To
 c1: tau - 0.001862197393 m_a0_proc_0 - 0.001160092807 m_a0_proc_1 <= 0
 c2: y_a0_proc_0 + y_a0_proc_1 - tau = 0
 c3: m_a0_proc_0 + m_a0_proc_1 = 1
 c4: y_a0_proc_0 - m_a0_proc_0 <= 0
 c5: y_a0_proc_0 >= 0
 c6: y_a0_proc_1 - m_a0_proc_1 <= 0
 c7: y_a0_proc_1 >= 0
 c8: tau - 0.001036269430 m_a1_proc_0 - 0.000996015936 m_a1_proc_1 <= 0
 c9: y_a1_proc_0 + y_a1_proc_1 - tau = 0
 c10: m_a1_proc_0 + m_a1_proc_1 = 1
 c11: y_a1_proc_0 - m_a1_proc_0 <= 0
 c12: y_a1_proc_0 >= 0
 c13: y_a1_proc_1 - m_a1_proc_1 <= 0
 c14: y_a1_proc_1 >= 0
 c15: tau - 0.001021450460 m_a2_proc_0 - 0.001097694841 m_a2_proc_1 <= 0
 c16: y_a2_proc_0 + y_a2_proc_1 - tau = 0
 c17: m_a2_proc_0 + m_a2_proc_1 = 1
 c18: y_a2_proc_0 - m_a2_proc_0 <= 0
 c19: y_a2_proc_0 >= 0
 c20: y_a2_proc_1 - m_a2_proc_1 <= 0
 c21: y_a2_proc_1 >= 0
 c22: tau - 0.001033057851 m_a3_proc_1 <= 0
 c23: y_a3_proc_1 - tau = 0
 c24: m_a3_proc_1 = 1
 c25: y_a3_proc_1 - m_a3_proc_1 <= 0
 c26: y_a3_proc_1 >= 0
 c27: tau - 0.001131221719 m_a4_proc_0 - 0.001117318436 m_a4_proc_1 <= 0
 c28: y_a4_proc_0 + y_a4_proc_1 - tau = 0
 c29: m_a4_proc_0 + m_a4_proc_1 = 1
 c30: y_a4_proc_0 - m_a4_proc_0 <= 0
 c31: y_a4_proc_0 >= 0
 c32: y_a4_proc_1 - m_a4_proc_1 <= 0
 c33: y_a4_proc_1 >= 0
 c34: tau - 0.001169590643 m_a5_proc_0 - 0.000857632933 m_a5_proc_1 <= 0
 c35: y_a5_proc_0 + y_a5_proc_1 - tau = 0
 c36: m_a5_proc_0 + m_a5_proc_1 = 1
 c37: y_a5_proc_0 - m_a5_proc_0 <= 0
 c38: y_a5_proc_0 >= 0
 c39: y_a5_proc_1 - m_a5_proc_1 <= 0
 c40: y_a5_proc_1 >= 0
 c41: tau - 0.001273885350 m_a6_proc_0 - 0.000819000819 m_a6_proc_1 <= 0
 c42: y_a6_proc_0 + y_a6_proc_1 - tau = 0
 c43: m_a6_proc_0 + m_a6_proc_1 = 1
 c44: y_a6_proc_0 - m_a6_proc_0 <= 0
 c45: y_a6_proc_0 >= 0
 c46: y_a6_proc_1 - m_a6_proc_1 <= 0
 c47: y_a6_proc_1 >= 0
 c48: tau - 0.001280409731 m_a7_proc_0 - 0.000864304235 m_a7_proc_1 <= 0
 c49: y_a7_proc_0 + y_a7_proc_1 - tau = 0
 c50: m_a7_proc_0 + m_a7_proc_1 = 1
 c51: y_a7_proc_0 - m_a7_proc_0 <= 0
 c52: y_a7_proc_0 >= 0
 c53: y_a7_proc_1 - m_a7_proc_1 <= 0
 c54: y_a7_proc_1 >= 0
 c55: tau - 0.000854700855 m_a8_proc_0 - 0.001248439451 m_a8_proc_1 <= 0
 c56: y_a8_proc_0 + y_a8_proc_1 - tau = 0
 c57: m_a8_proc_0 + m_a8_proc_1 = 1
 c58: y_a8_proc_0 - m_a8_proc_0 <= 0
 c59: y_a8_proc_0 >= 0
 c60: y_a8_proc_1 - m_a8_proc_1 <= 0
 c61: y_a8_proc_1 >= 0
 c62: tau - 0.001267427123 m_a9_proc_0 - 0.001434720230 m_a9_proc_1 <= 0
 c63: y_a9_proc_0 + y_a9_proc_1 - tau = 0
 c64: m_a9_proc_0 + m_a9_proc_1 = 1
 c65: y_a9_proc_0 - m_a9_proc_0 <= 0
 c66: y_a9_proc_0 >= 0
 c67: y_a9_proc_1 - m_a9_proc_1 <= 0
 c68: y_a9_proc_1 >= 0
 c69: u_a0 - u_a1 - 965 y_a1_proc_0 - 1004 y_a1_proc_1 >= -1
 c70: u_a0 - u_a2 - 979 y_a2_proc_0 - 911 y_a2_proc_1 >= -1
 c71: u_a3 - u_a2 - 979 y_a2_proc_0 - 911 y_a2_proc_1 >= 0
 c72: u_a2 - u_a4 - 884 y_a4_proc_0 - 895 y_a4_proc_1 >= 0
 c73: u_a1 - u_a5 - 855 y_a5_proc_0 - 1166 y_a5_proc_1 >= 0
 c74: u_a6 - u_a3 - 968 y_a3_proc_1 >= 0
 c75: u_a4 - u_a7 - 781 y_a7_proc_0 - 1157 y_a7_proc_1 >= 0
 c76: u_a1 - u_a8 - 1170 y_a8_proc_0 - 801 y_a8_proc_1 >= 0
 c77: u_a5 - u_a9 - 789 y_a9_proc_0 - 697 y_a9_proc_1 >= 0
 c78: u_a7 - u_a1 - 965 y_a1_proc_0 - 1004 y_a1_proc_1 >= -1
 c79: u_a4 - u_a1 - 965 y_a1_proc_0 - 1004 y_a1_proc_1 >= -1
 c80: u_a8 - u_a0 - 537 y_a0_proc_0 - 862 y_a0_proc_1 >= 0
 c81: u_a1 - u_a4 - 884 y_a4_proc_0 - 895 y_a4_proc_1 >= 0
 c82: u_a3 - u_a6 - 785 y_a6_proc_0 - 1221 y_a6_proc_1 >= -1
 c83: - 979 y_a2_proc_0 - 911 y_a2_proc_1 >= -1
 c84: u_a9 - u_a0 - 537 y_a0_proc_0 - 862 y_a0_proc_1 >= 0
 c85: u_a1 + K_a0_a1 - 1221 m_a0_proc_0 - 1221 m_a1_proc_0 - u_a0
      - 537 y_a0_proc_0 >= -2442
 c86: u_a1 + K_a0_a1 - 1221 m_a0_proc_1 - 1221 m_a1_proc_1 - u_a0
      - 862 y_a0_proc_1 >= -2442
 c87: K_a0_a1 + K_a1_a0 = 1
 c88: u_a0 + K_a1_a0 - 1221 m_a0_proc_0 - 1221 m_a1_proc_0 - u_a1
      - 965 y_a1_proc_0 >= -2442
 c89: u_a0 + K_a1_a0 - 1221 m_a0_proc_1 - 1221 m_a1_proc_1 - u_a1
      - 1004 y_a1_proc_1 >= -2442
 c90: K_a0_a1 + K_a1_a0 = 1
 c91: u_a2 + K_a0_a2 - 1221 m_a0_proc_0 - 1221 m_a2_proc_0 - u_a0
      - 537 y_a0_proc_0 >= -2442
 c92: u_a2 + K_a0_a2 - 1221 m_a0_proc_1 - 1221 m_a2_proc_1 - u_a0
      - 862 y_a0_proc_1 >= -2442
 c93: K_a0_a2 + K_a2_a0 = 1
 c94: u_a0 + K_a2_a0 - 1221 m_a0_proc_0 - 1221 m_a2_proc_0 - u_a2
      - 979 y_a2_proc_0 >= -2442
 c95: u_a0 + K_a2_a0 - 1221 m_a0_proc_1 - 1221 m_a2_proc_1 - u_a2
      - 911 y_a2_proc_1 >= -2442
 c96: K_a0_a2 + K_a2_a0 = 1
 c97: u_a3 + K_a0_a3 - 1221 m_a0_proc_1 - 1221 m_a3_proc_1 - u_a0
      - 862 y_a0_proc_1 >= -2442
 c98: K_a0_a3 + K_a3_a0 = 1
 c99: u_a0 + K_a3_a0 - 1221 m_a0_proc_1 - 1221 m_a3_proc_1 - u_a3
      - 968 y_a3_proc_1 >= -2442
 c100: K_a0_a3 + K_a3_a0 = 1
 c101: u_a4 + K_a0_a4 - 1221 m_a0_proc_0 - 1221 m_a4_proc_0 - u_a0
       - 537 y_a0_proc_0 >= -2442
 c102: u_a4 + K_a0_a4 - 1221 m_a0_proc_1 - 1221 m_a4_proc_1 - u_a0
       - 862 y_a0_proc_1 >= -2442
 c103: K_a0_a4 + K_a4_a0 = 1
 c104: u_a0 + K_a4_a0 - 1221 m_a0_proc_0 - 1221 m_a4_proc_0 - u_a4
       - 884 y_a4_proc_0 >= -2442
 c105: u_a0 + K_a4_a0 - 1221 m_a0_proc_1 - 1221 m_a4_proc_1 - u_a4
       - 895 y_a4_proc_1 >= -2442
 c106: K_a0_a4 + K_a4_a0 = 1
 c107: u_a5 + K_a0_a5 - 1221 m_a0_proc_0 - 1221 m_a5_proc_0 - u_a0
       - 537 y_a0_proc_0 >= -2442
 c108: u_a5 + K_a0_a5 - 1221 m_a0_proc_1 - 1221 m_a5_proc_1 - u_a0
       - 862 y_a0_proc_1 >= -2442
 c109: K_a0_a5 + K_a5_a0 = 1
 c110: u_a0 + K_a5_a0 - 1221 m_a0_proc_0 - 1221 m_a5_proc_0 - u_a5
       - 855 y_a5_proc_0 >= -2442
 c111: u_a0 + K_a5_a0 - 1221 m_a0_proc_1 - 1221 m_a5_proc_1 - u_a5
       - 1166 y_a5_proc_1 >= -2442
 c112: K_a0_a5 + K_a5_a0 = 1
 c113: u_a6 + K_a0_a6 - 1221 m_a0_proc_0 - 1221 m_a6_proc_0 - u_a0
       - 537 y_a0_proc_0 >= -2442
 c114: u_a6 + K_a0_a6 - 1221 m_a0_proc_1 - 1221 m_a6_proc_1 - u_a0
       - 862 y_a0_proc_1 >= -2442
 c115: K_a0_a6 + K_a6_a0 = 1
 c116: u_a0 + K_a6_a0 - 1221 m_a0_proc_0 - 1221 m_a6_proc_0 - u_a6
       - 785 y_a6_proc_0 >= -2442
 c117: u_a0 + K_a6_a0 - 1221 m_a0_proc_1 - 1221 m_a6_proc_1 - u_a6
       - 1221 y_a6_proc_1 >= -2442
 c118: K_a0_a6 + K_a6_a0 = 1
 c119: u_a7 + K_a0_a7 - 1221 m_a0_proc_0 - 1221 m_a7_proc_0 - u_a0
       - 537 y_a0_proc_0 >= -2442
 c120: u_a7 + K_a0_a7 - 1221 m_a0_proc_1 - 1221 m_a7_proc_1 - u_a0
       - 862 y_a0_proc_1 >= -2442
 c121: K_a0_a7 + K_a7_a0 = 1
 c122: u_a0 + K_a7_a0 - 1221 m_a0_proc_0 - 1221 m_a7_proc_0 - u_a7
       - 781 y_a7_proc_0 >= -2442
 c123: u_a0 + K_a7_a0 - 1221 m_a0_proc_1 - 1221 m_a7_proc_1 - u_a7
       - 1157 y_a7_proc_1 >= -2442
 c124: K_a0_a7 + K_a7_a0 = 1
 c125: u_a8 + K_a0_a8 - 1221 m_a0_proc_0 - 1221 m_a8_proc_0 - u_a0
       - 537 y_a0_proc_0 >= -2442
 c126: u_a8 + K_a0_a8 - 1221 m_a0_proc_1 - 1221 m_a8_proc_1 - u_a0
       - 862 y_a0_proc_1 >= -2442
 c127: K_a0_a8 + K_a8_a0 = 1
 c128: u_a0 + K_a8_a0 - 1221 m_a0_proc_0 - 1221 m_a8_proc_0 - u_a8
       - 1170 y_a8_proc_0 >= -2442
 c129: u_a0 + K_a8_a0 - 1221 m_a0_proc_1 - 1221 m_a8_proc_1 - u_a8
       - 801 y_a8_proc_1 >= -2442
 c130: K_a0_a8 + K_a8_a0 = 1
 c131: u_a9 + K_a0_a9 - 1221 m_a0_proc_0 - 1221 m_a9_proc_0 - u_a0
       - 537 y_a0_proc_0 >= -2442
 c132: u_a9 + K_a0_a9 - 1221 m_a0_proc_1 - 1221 m_a9_proc_1 - u_a0
       - 862 y_a0_proc_1 >= -2442
 c133: K_a0_a9 + K_a9_a0 = 1
 c134: u_a0 + K_a9_a0 - 1221 m_a0_proc_0 - 1221 m_a9_proc_0 - u_a9
       - 789 y_a9_proc_0 >= -2442
 c135: u_a0 + K_a9_a0 - 1221 m_a0_proc_1 - 1221 m_a9_proc_1 - u_a9
       - 697 y_a9_proc_1 >= -2442
 c136: K_a0_a9 + K_a9_a0 = 1
 c137: u_a2 + K_a1_a2 - 1221 m_a1_proc_0 - 1221 m_a2_proc_0 - u_a1
       - 965 y_a1_proc_0 >= -2442
 c138: u_a2 + K_a1_a2 - 1221 m_a1_proc_1 - 1221 m_a2_proc_1 - u_a1
       - 1004 y_a1_proc_1 >= -2442
 c139: K_a1_a2 + K_a2_a1 = 1
 c140: u_a1 + K_a2_a1 - 1221 m_a1_proc_0 - 1221 m_a2_proc_0 - u_a2
       - 979 y_a2_proc_0 >= -2442
 c141: u_a1 + K_a2_a1 - 1221 m_a1_proc_1 - 1221 m_a2_proc_1 - u_a2
       - 911 y_a2_proc_1 >= -2442
 c142: K_a1_a2 + K_a2_a1 = 1
 c143: u_a3 + K_a1_a3 - 1221 m_a1_proc_1 - 1221 m_a3_proc_1 - u_a1
       - 1004 y_a1_proc_1 >= -2442
 c144: K_a1_a3 + K_a3_a1 = 1
 c145: u_a1 + K_a3_a1 - 1221 m_a1_proc_1 - 1221 m_a3_proc_1 - u_a3
       - 968 y_a3_proc_1 >= -2442
 c146: K_a1_a3 + K_a3_a1 = 1
 c147: u_a4 + K_a1_a4 - 1221 m_a1_proc_0 - 1221 m_a4_proc_0 - u_a1
       - 965 y_a1_proc_0 >= -2442
 c148: u_a4 + K_a1_a4 - 1221 m_a1_proc_1 - 1221 m_a4_proc_1 - u_a1
       - 1004 y_a1_proc_1 >= -2442
 c149: K_a1_a4 + K_a4_a1 = 1
 c150: u_a1 + K_a4_a1 - 1221 m_a1_proc_0 - 1221 m_a4_proc_0 - u_a4
       - 884 y_a4_proc_0 >= -2442
 c151: u_a1 + K_a4_a1 - 1221 m_a1_proc_1 - 1221 m_a4_proc_1 - u_a4
       - 895 y_a4_proc_1 >= -2442
 c152: K_a1_a4 + K_a4_a1 = 1
 c153: u_a5 + K_a1_a5 - 1221 m_a1_proc_0 - 1221 m_a5_proc_0 - u_a1
       - 965 y_a1_proc_0 >= -2442
 c154: u_a5 + K_a1_a5 - 1221 m_a1_proc_1 - 1221 m_a5_proc_1 - u_a1
       - 1004 y_a1_proc_1 >= -2442
 c155: K_a1_a5 + K_a5_a1 = 1
 c156: u_a1 + K_a5_a1 - 1221 m_a1_proc_0 - 1221 m_a5_proc_0 - u_a5
       - 855 y_a5_proc_0 >= -2442
 c157: u_a1 + K_a5_a1 - 1221 m_a1_proc_1 - 1221 m_a5_proc_1 - u_a5
       - 1166 y_a5_proc_1 >= -2442
 c158: K_a1_a5 + K_a5_a1 = 1
 c159: u_a6 + K_a1_a6 - 1221 m_a1_proc_0 - 1221 m_a6_proc_0 - u_a1
       - 965 y_a1_proc_0 >= -2442
 c160: u_a6 + K_a1_a6 - 1221 m_a1_proc_1 - 1221 m_a6_proc_1 - u_a1
       - 1004 y_a1_proc_1 >= -2442
 c161: K_a1_a6 + K_a6_a1 = 1
 c162: u_a1 + K_a6_a1 - 1221 m_a1_proc_0 - 1221 m_a6_proc_0 - u_a6
       - 785 y_a6_proc_0 >= -2442
 c163: u_a1 + K_a6_a1 - 1221 m_a1_proc_1 - 1221 m_a6_proc_1 - u_a6
       - 1221 y_a6_proc_1 >= -2442
 c164: K_a1_a6 + K_a6_a1 = 1
 c165: u_a7 + K_a1_a7 - 1221 m_a1_proc_0 - 1221 m_a7_proc_0 - u_a1
       - 965 y_a1_proc_0 >= -2442
 c166: u_a7 + K_a1_a7 - 1221 m_a1_proc_1 - 1221 m_a7_proc_1 - u_a1
       - 1004 y_a1_proc_1 >= -2442
 c167: K_a1_a7 + K_a7_a1 = 1
 c168: u_a1 + K_a7_a1 - 1221 m_a1_proc_0 - 1221 m_a7_proc_0 - u_a7
       - 781 y_a7_proc_0 >= -2442
 c169: u_a1 + K_a7_a1 - 1221 m_a1_proc_1 - 1221 m_a7_proc_1 - u_a7
       - 1157 y_a7_proc_1 >= -2442
 c170: K_a1_a7 + K_a7_a1 = 1
 c171: u_a8 + K_a1_a8 - 1221 m_a1_proc_0 - 1221 m_a8_proc_0 - u_a1
       - 965 y_a1_proc_0 >= -2442
 c172: u_a8 + K_a1_a8 - 1221 m_a1_proc_1 - 1221 m_a8_proc_1 - u_a1
       - 1004 y_a1_proc_1 >= -2442
 c173: K_a1_a8 + K_a8_a1 = 1
 c174: u_a1 + K_a8_a1 - 1221 m_a1_proc_0 - 1221 m_a8_proc_0 - u_a8
       - 1170 y_a8_proc_0 >= -2442
 c175: u_a1 + K_a8_a1 - 1221 m_a1_proc_1 - 1221 m_a8_proc_1 - u_a8
       - 801 y_a8_proc_1 >= -2442
 c176: K_a1_a8 + K_a8_a1 = 1
 c177: u_a9 + K_a1_a9 - 1221 m_a1_proc_0 - 1221 m_a9_proc_0 - u_a1
       - 965 y_a1_proc_0 >= -2442
 c178: u_a9 + K_a1_a9 - 1221 m_a1_proc_1 - 1221 m_a9_proc_1 - u_a1
       - 1004 y_a1_proc_1 >= -2442
 c179: K_a1_a9 + K_a9_a1 = 1
 c180: u_a1 + K_a9_a1 - 1221 m_a1_proc_0 - 1221 m_a9_proc_0 - u_a9
       - 789 y_a9_proc_0 >= -2442
 c181: u_a1 + K_a9_a1 - 1221 m_a1_proc_1 - 1221 m_a9_proc_1 - u_a9
       - 697 y_a9_proc_1 >= -2442
 c182: K_a1_a9 + K_a9_a1 = 1
 c183: u_a3 + K_a2_a3 - 1221 m_a2_proc_1 - 1221 m_a3_proc_1 - u_a2
       - 911 y_a2_proc_1 >= -2442
 c184: K_a2_a3 + K_a3_a2 = 1
 c185: u_a2 + K_a3_a2 - 1221 m_a2_proc_1 - 1221 m_a3_proc_1 - u_a3
       - 968 y_a3_proc_1 >= -2442
 c186: K_a2_a3 + K_a3_a2 = 1
 c187: u_a4 + K_a2_a4 - 1221 m_a2_proc_0 - 1221 m_a4_proc_0 - u_a2
       - 979 y_a2_proc_0 >= -2442
 c188: u_a4 + K_a2_a4 - 1221 m_a2_proc_1 - 1221 m_a4_proc_1 - u_a2
       - 911 y_a2_proc_1 >= -2442
 c189: K_a2_a4 + K_a4_a2 = 1
 c190: u_a2 + K_a4_a2 - 1221 m_a2_proc_0 - 1221 m_a4_proc_0 - u_a4
       - 884 y_a4_proc_0 >= -2442
 c191: u_a2 + K_a4_a2 - 1221 m_a2_proc_1 - 1221 m_a4_proc_1 - u_a4
       - 895 y_a4_proc_1 >= -2442
 c192: K_a2_a4 + K_a4_a2 = 1
 c193: u_a5 + K_a2_a5 - 1221 m_a2_proc_0 - 1221 m_a5_proc_0 - u_a2
       - 979 y_a2_proc_0 >= -2442
 c194: u_a5 + K_a2_a5 - 1221 m_a2_proc_1 - 1221 m_a5_proc_1 - u_a2
       - 911 y_a2_proc_1 >= -2442
 c195: K_a2_a5 + K_a5_a2 = 1
 c196: u_a2 + K_a5_a2 - 1221 m_a2_proc_0 - 1221 m_a5_proc_0 - u_a5
       - 855 y_a5_proc_0 >= -2442
 c197: u_a2 + K_a5_a2 - 1221 m_a2_proc_1 - 1221 m_a5_proc_1 - u_a5
       - 1166 y_a5_proc_1 >= -2442
 c198: K_a2_a5 + K_a5_a2 = 1
 c199: u_a6 + K_a2_a6 - 1221 m_a2_proc_0 - 1221 m_a6_proc_0 - u_a2
       - 979 y_a2_proc_0 >= -2442
 c200: u_a6 + K_a2_a6 - 1221 m_a2_proc_1 - 1221 m_a6_proc_1 - u_a2
       - 911 y_a2_proc_1 >= -2442
 c201: K_a2_a6 + K_a6_a2 = 1
 c202: u_a2 + K_a6_a2 - 1221 m_a2_proc_0 - 1221 m_a6_proc_0 - u_a6
       - 785 y_a6_proc_0 >= -2442
 c203: u_a2 + K_a6_a2 - 1221 m_a2_proc_1 - 1221 m_a6_proc_1 - u_a6
       - 1221 y_a6_proc_1 >= -2442
 c204: K_a2_a6 + K_a6_a2 = 1
 c205: u_a7 + K_a2_a7 - 1221 m_a2_proc_0 - 1221 m_a7_proc_0 - u_a2
       - 979 y_a2_proc_0 >= -2442
 c206: u_a7 + K_a2_a7 - 1221 m_a2_proc_1 - 1221 m_a7_proc_1 - u_a2
       - 911 y_a2_proc_1 >= -2442
 c207: K_a2_a7 + K_a7_a2 = 1
 c208: u_a2 + K_a7_a2 - 1221 m_a2_proc_0 - 1221 m_a7_proc_0 - u_a7
       - 781 y_a7_proc_0 >= -2442
 c209: u_a2 + K_a7_a2 - 1221 m_a2_proc_1 - 1221 m_a7_proc_1 - u_a7
       - 1157 y_a7_proc_1 >= -2442
 c210: K_a2_a7 + K_a7_a2 = 1
 c211: u_a8 + K_a2_a8 - 1221 m_a2_proc_0 - 1221 m_a8_proc_0 - u_a2
       - 979 y_a2_proc_0 >= -2442
 c212: u_a8 + K_a2_a8 - 1221 m_a2_proc_1 - 1221 m_a8_proc_1 - u_a2
       - 911 y_a2_proc_1 >= -2442
 c213: K_a2_a8 + K_a8_a2 = 1
 c214: u_a2 + K_a8_a2 - 1221 m_a2_proc_0 - 1221 m_a8_proc_0 - u_a8
       - 1170 y_a8_proc_0 >= -2442
 c215: u_a2 + K_a8_a2 - 1221 m_a2_proc_1 - 1221 m_a8_proc_1 - u_a8
       - 801 y_a8_proc_1 >= -2442
 c216: K_a2_a8 + K_a8_a2 = 1
 c217: u_a9 + K_a2_a9 - 1221 m_a2_proc_0 - 1221 m_a9_proc_0 - u_a2
       - 979 y_a2_proc_0 >= -2442
 c218: u_a9 + K_a2_a9 - 1221 m_a2_proc_1 - 1221 m_a9_proc_1 - u_a2
       - 911 y_a2_proc_1 >= -2442
 c219: K_a2_a9 + K_a9_a2 = 1
 c220: u_a2 + K_a9_a2 - 1221 m_a2_proc_0 - 1221 m_a9_proc_0 - u_a9
       - 789 y_a9_proc_0 >= -2442
 c221: u_a2 + K_a9_a2 - 1221 m_a2_proc_1 - 1221 m_a9_proc_1 - u_a9
       - 697 y_a9_proc_1 >= -2442
 c222: K_a2_a9 + K_a9_a2 = 1
 c223: u_a4 + K_a3_a4 - 1221 m_a3_proc_1 - 1221 m_a4_proc_1 - u_a3
       - 968 y_a3_proc_1 >= -2442
 c224: K_a3_a4 + K_a4_a3 = 1
 c225: u_a3 + K_a4_a3 - 1221 m_a3_proc_1 - 1221 m_a4_proc_1 - u_a4
       - 895 y_a4_proc_1 >= -2442
 c226: K_a3_a4 + K_a4_a3 = 1
 c227: u_a5 + K_a3_a5 - 1221 m_a3_proc_1 - 1221 m_a5_proc_1 - u_a3
       - 968 y_a3_proc_1 >= -2442
 c228: K_a3_a5 + K_a5_a3 = 1
 c229: u_a3 + K_a5_a3 - 1221 m_a3_proc_1 - 1221 m_a5_proc_1 - u_a5
       - 1166 y_a5_proc_1 >= -2442
 c230: K_a3_a5 + K_a5_a3 = 1
 c231: u_a6 + K_a3_a6 - 1221 m_a3_proc_1 - 1221 m_a6_proc_1 - u_a3
       - 968 y_a3_proc_1 >= -2442
 c232: K_a3_a6 + K_a6_a3 = 1
 c233: u_a3 + K_a6_a3 - 1221 m_a3_proc_1 - 1221 m_a6_proc_1 - u_a6
       - 1221 y_a6_proc_1 >= -2442
 c234: K_a3_a6 + K_a6_a3 = 1
 c235: u_a7 + K_a3_a7 - 1221 m_a3_proc_1 - 1221 m_a7_proc_1 - u_a3
       - 968 y_a3_proc_1 >= -2442
 c236: K_a3_a7 + K_a7_a3 = 1
 c237: u_a3 + K_a7_a3 - 1221 m_a3_proc_1 - 1221 m_a7_proc_1 - u_a7
       - 1157 y_a7_proc_1 >= -2442
 c238: K_a3_a7 + K_a7_a3 = 1
 c239: u_a8 + K_a3_a8 - 1221 m_a3_proc_1 - 1221 m_a8_proc_1 - u_a3
       - 968 y_a3_proc_1 >= -2442
 c240: K_a3_a8 + K_a8_a3 = 1
 c241: u_a3 + K_a8_a3 - 1221 m_a3_proc_1 - 1221 m_a8_proc_1 - u_a8
       - 801 y_a8_proc_1 >= -2442
 c242: K_a3_a8 + K_a8_a3 = 1
 c243: u_a9 + K_a3_a9 - 1221 m_a3_proc_1 - 1221 m_a9_proc_1 - u_a3
       - 968 y_a3_proc_1 >= -2442
 c244: K_a3_a9 + K_a9_a3 = 1
 c245: u_a3 + K_a9_a3 - 1221 m_a3_proc_1 - 1221 m_a9_proc_1 - u_a9
       - 697 y_a9_proc_1 >= -2442
 c246: K_a3_a9 + K_a9_a3 = 1
 c247: u_a5 + K_a4_a5 - 1221 m_a4_proc_0 - 1221 m_a5_proc_0 - u_a4
       - 884 y_a4_proc_0 >= -2442
 c248: u_a5 + K_a4_a5 - 1221 m_a4_proc_1 - 1221 m_a5_proc_1 - u_a4
       - 895 y_a4_proc_1 >= -2442
 c249: K_a4_a5 + K_a5_a4 = 1
 c250: u_a4 + K_a5_a4 - 1221 m_a4_proc_0 - 1221 m_a5_proc_0 - u_a5
       - 855 y_a5_proc_0 >= -2442
 c251: u_a4 + K_a5_a4 - 1221 m_a4_proc_1 - 1221 m_a5_proc_1 - u_a5
       - 1166 y_a5_proc_1 >= -2442
 c252: K_a4_a5 + K_a5_a4 = 1
 c253: u_a6 + K_a4_a6 - 1221 m_a4_proc_0 - 1221 m_a6_proc_0 - u_a4
       - 884 y_a4_proc_0 >= -2442
 c254: u_a6 + K_a4_a6 - 1221 m_a4_proc_1 - 1221 m_a6_proc_1 - u_a4
       - 895 y_a4_proc_1 >= -2442
 c255: K_a4_a6 + K_a6_a4 = 1
 c256: u_a4 + K_a6_a4 - 1221 m_a4_proc_0 - 1221 m_a6_proc_0 - u_a6
       - 785 y_a6_proc_0 >= -2442
 c257: u_a4 + K_a6_a4 - 1221 m_a4_proc_1 - 1221 m_a6_proc_1 - u_a6
       - 1221 y_a6_proc_1 >= -2442
 c258: K_a4_a6 + K_a6_a4 = 1
 c259: u_a7 + K_a4_a7 - 1221 m_a4_proc_0 - 1221 m_a7_proc_0 - u_a4
       - 884 y_a4_proc_0 >= -2442
 c260: u_a7 + K_a4_a7 - 1221 m_a4_proc_1 - 1221 m_a7_proc_1 - u_a4
       - 895 y_a4_proc_1 >= -2442
 c261: K_a4_a7 + K_a7_a4 = 1
 c262: u_a4 + K_a7_a4 - 1221 m_a4_proc_0 - 1221 m_a7_proc_0 - u_a7
       - 781 y_a7_proc_0 >= -2442
 c263: u_a4 + K_a7_a4 - 1221 m_a4_proc_1 - 1221 m_a7_proc_1 - u_a7
       - 1157 y_a7_proc_1 >= -2442
 c264: K_a4_a7 + K_a7_a4 = 1
 c265: u_a8 + K_a4_a8 - 1221 m_a4_proc_0 - 1221 m_a8_proc_0 - u_a4
       - 884 y_a4_proc_0 >= -2442
 c266: u_a8 + K_a4_a8 - 1221 m_a4_proc_1 - 1221 m_a8_proc_1 - u_a4
       - 895 y_a4_proc_1 >= -2442
 c267: K_a4_a8 + K_a8_a4 = 1
 c268: u_a4 + K_a8_a4 - 1221 m_a4_proc_0 - 1221 m_a8_proc_0 - u_a8
       - 1170 y_a8_proc_0 >= -2442
 c269: u_a4 + K_a8_a4 - 1221 m_a4_proc_1 - 1221 m_a8_proc_1 - u_a8
       - 801 y_a8_proc_1 >= -2442
 c270: K_a4_a8 + K_a8_a4 = 1
 c271: u_a9 + K_a4_a9 - 1221 m_a4_proc_0 - 1221 m_a9_proc_0 - u_a4
       - 884 y_a4_proc_0 >= -2442
 c272: u_a9 + K_a4_a9 - 1221 m_a4_proc_1 - 1221 m_a9_proc_1 - u_a4
       - 895 y_a4_proc_1 >= -2442
 c273: K_a4_a9 + K_a9_a4 = 1
 c274: u_a4 + K_a9_a4 - 1221 m_a4_proc_0 - 1221 m_a9_proc_0 - u_a9
       - 789 y_a9_proc_0 >= -2442
 c275: u_a4 + K_a9_a4 - 1221 m_a4_proc_1 - 1221 m_a9_proc_1 - u_a9
       - 697 y_a9_proc_1 >= -2442
 c276: K_a4_a9 + K_a9_a4 = 1
 c277: u_a6 + K_a5_a6 - 1221 m_a5_proc_0 - 1221 m_a6_proc_0 - u_a5
       - 855 y_a5_proc_0 >= -2442
 c278: u_a6 + K_a5_a6 - 1221 m_a5_proc_1 - 1221 m_a6_proc_1 - u_a5
       - 1166 y_a5_proc_1 >= -2442
 c279: K_a5_a6 + K_a6_a5 = 1
 c280: u_a5 + K_a6_a5 - 1221 m_a5_proc_0 - 1221 m_a6_proc_0 - u_a6
       - 785 y_a6_proc_0 >= -2442
 c281: u_a5 + K_a6_a5 - 1221 m_a5_proc_1 - 1221 m_a6_proc_1 - u_a6
       - 1221 y_a6_proc_1 >= -2442
 c282: K_a5_a6 + K_a6_a5 = 1
 c283: u_a7 + K_a5_a7 - 1221 m_a5_proc_0 - 1221 m_a7_proc_0 - u_a5
       - 855 y_a5_proc_0 >= -2442
 c284: u_a7 + K_a5_a7 - 1221 m_a5_proc_1 - 1221 m_a7_proc_1 - u_a5
       - 1166 y_a5_proc_1 >= -2442
 c285: K_a5_a7 + K_a7_a5 = 1
 c286: u_a5 + K_a7_a5 - 1221 m_a5_proc_0 - 1221 m_a7_proc_0 - u_a7
       - 781 y_a7_proc_0 >= -2442
 c287: u_a5 + K_a7_a5 - 1221 m_a5_proc_1 - 1221 m_a7_proc_1 - u_a7
       - 1157 y_a7_proc_1 >= -2442
 c288: K_a5_a7 + K_a7_a5 = 1
 c289: u_a8 + K_a5_a8 - 1221 m_a5_proc_0 - 1221 m_a8_proc_0 - u_a5
       - 855 y_a5_proc_0 >= -2442
 c290: u_a8 + K_a5_a8 - 1221 m_a5_proc_1 - 1221 m_a8_proc_1 - u_a5
       - 1166 y_a5_proc_1 >= -2442
 c291: K_a5_a8 + K_a8_a5 = 1
 c292: u_a5 + K_a8_a5 - 1221 m_a5_proc_0 - 1221 m_a8_proc_0 - u_a8
       - 1170 y_a8_proc_0 >= -2442
 c293: u_a5 + K_a8_a5 - 1221 m_a5_proc_1 - 1221 m_a8_proc_1 - u_a8
       - 801 y_a8_proc_1 >= -2442
 c294: K_a5_a8 + K_a8_a5 = 1
 c295: u_a9 + K_a5_a9 - 1221 m_a5_proc_0 - 1221 m_a9_proc_0 - u_a5
       - 855 y_a5_proc_0 >= -2442
 c296: u_a9 + K_a5_a9 - 1221 m_a5_proc_1 - 1221 m_a9_proc_1 - u_a5
       - 1166 y_a5_proc_1 >= -2442
 c297: K_a5_a9 + K_a9_a5 = 1
 c298: u_a5 + K_a9_a5 - 1221 m_a5_proc_0 - 1221 m_a9_proc_0 - u_a9
       - 789 y_a9_proc_0 >= -2442
 c299: u_a5 + K_a9_a5 - 1221 m_a5_proc_1 - 1221 m_a9_proc_1 - u_a9
       - 697 y_a9_proc_1 >= -2442
 c300: K_a5_a9 + K_a9_a5 = 1
 c301: u_a7 + K_a6_a7 - 1221 m_a6_proc_0 - 1221 m_a7_proc_0 - u_a6
       - 785 y_a6_proc_0 >= -2442
 c302: u_a7 + K_a6_a7 - 1221 m_a6_proc_1 - 1221 m_a7_proc_1 - u_a6
       - 1221 y_a6_proc_1 >= -2442
 c303: K_a6_a7 + K_a7_a6 = 1
 c304: u_a6 + K_a7_a6 - 1221 m_a6_proc_0 - 1221 m_a7_proc_0 - u_a7
       - 781 y_a7_proc_0 >= -2442
 c305: u_a6 + K_a7_a6 - 1221 m_a6_proc_1 - 1221 m_a7_proc_1 - u_a7
       - 1157 y_a7_proc_1 >= -2442
 c306: K_a6_a7 + K_a7_a6 = 1
 c307: u_a8 + K_a6_a8 - 1221 m_a6_proc_0 - 1221 m_a8_proc_0 - u_a6
       - 785 y_a6_proc_0 >= -2442
 c308: u_a8 + K_a6_a8 - 1221 m_a6_proc_1 - 1221 m_a8_proc_1 - u_a6
       - 1221 y_a6_proc_1 >= -2442
 c309: K_a6_a8 + K_a8_a6 = 1
 c310: u_a6 + K_a8_a6 - 1221 m_a6_proc_0 - 1221 m_a8_proc_0 - u_a8
       - 1170 y_a8_proc_0 >= -2442
 c311: u_a6 + K_a8_a6 - 1221 m_a6_proc_1 - 1221 m_a8_proc_1 - u_a8
       - 801 y_a8_proc_1 >= -2442
 c312: K_a6_a8 + K_a8_a6 = 1
 c313: u_a9 + K_a6_a9 - 1221 m_a6_proc_0 - 1221 m_a9_proc_0 - u_a6
       - 785 y_a6_proc_0 >= -2442
 c314: u_a9 + K_a6_a9 - 1221 m_a6_proc_1 - 1221 m_a9_proc_1 - u_a6
       - 1221 y_a6_proc_1 >= -2442
 c315: K_a6_a9 + K_a9_a6 = 1
 c316: u_a6 + K_a9_a6 - 1221 m_a6_proc_0 - 1221 m_a9_proc_0 - u_a9
       - 789 y_a9_proc_0 >= -2442
 c317: u_a6 + K_a9_a6 - 1221 m_a6_proc_1 - 1221 m_a9_proc_1 - u_a9
       - 697 y_a9_proc_1 >= -2442
 c318: K_a6_a9 + K_a9_a6 = 1
 c319: u_a8 + K_a7_a8 - 1221 m_a7_proc_0 - 1221 m_a8_proc_0 - u_a7
       - 781 y_a7_proc_0 >= -2442
 c320: u_a8 + K_a7_a8 - 1221 m_a7_proc_1 - 1221 m_a8_proc_1 - u_a7
       - 1157 y_a7_proc_1 >= -2442
 c321: K_a7_a8 + K_a8_a7 = 1
 c322: u_a7 + K_a8_a7 - 1221 m_a7_proc_0 - 1221 m_a8_proc_0 - u_a8
       - 1170 y_a8_proc_0 >= -2442
 c323: u_a7 + K_a8_a7 - 1221 m_a7_proc_1 - 1221 m_a8_proc_1 - u_a8
       - 801 y_a8_proc_1 >= -2442
 c324: K_a7_a8 + K_a8_a7 = 1
 c325: u_a9 + K_a7_a9 - 1221 m_a7_proc_0 - 1221 m_a9_proc_0 - u_a7
       - 781 y_a7_proc_0 >= -2442
 c326: u_a9 + K_a7_a9 - 1221 m_a7_proc_1 - 1221 m_a9_proc_1 - u_a7
       - 1157 y_a7_proc_1 >= -2442
 c327: K_a7_a9 + K_a9_a7 = 1
 c328: u_a7 + K_a9_a7 - 1221 m_a7_proc_0 - 1221 m_a9_proc_0 - u_a9
       - 789 y_a9_proc_0 >= -2442
 c329: u_a7 + K_a9_a7 - 1221 m_a7_proc_1 - 1221 m_a9_proc_1 - u_a9
       - 697 y_a9_proc_1 >= -2442
 c330: K_a7_a9 + K_a9_a7 = 1
 c331: u_a9 + K_a8_a9 - 1221 m_a8_proc_0 - 1221 m_a9_proc_0 - u_a8
       - 1170 y_a8_proc_0 >= -2442
 c332: u_a9 + K_a8_a9 - 1221 m_a8_proc_1 - 1221 m_a9_proc_1 - u_a8
       - 801 y_a8_proc_1 >= -2442
 c333: K_a8_a9 + K_a9_a8 = 1
 c334: u_a8 + K_a9_a8 - 1221 m_a8_proc_0 - 1221 m_a9_proc_0 - u_a9
       - 789 y_a9_proc_0 >= -2442
 c335: u_a8 + K_a9_a8 - 1221 m_a8_proc_1 - 1221 m_a9_proc_1 - u_a9
       - 697 y_a9_proc_1 >= -2442
 c336: K_a8_a9 + K_a9_a8 = 1

Bounds
       K_a0_a1 Free
       K_a0_a2 Free
       K_a0_a3 Free
       K_a0_a4 Free
       K_a0_a5 Free
       K_a0_a6 Free
       K_a0_a7 Free
       K_a0_a8 Free
       K_a0_a9 Free
       K_a1_a0 Free
       K_a1_a2 Free
       K_a1_a3 Free
       K_a1_a4 Free
       K_a1_a5 Free
       K_a1_a6 Free
       K_a1_a7 Free
       K_a1_a8 Free
       K_a1_a9 Free
       K_a2_a0 Free
       K_a2_a1 Free
       K_a2_a3 Free
       K_a2_a4 Free
       K_a2_a5 Free
       K_a2_a6 Free
       K_a2_a7 Free
       K_a2_a8 Free
       K_a2_a9 Free
       K_a3_a0 Free
       K_a3_a1 Free
       K_a3_a2 Free
       K_a3_a4 Free
       K_a3_a5 Free
       K_a3_a6 Free
       K_a3_a7 Free
       K_a3_a8 Free
       K_a3_a9 Free
       K_a4_a0 Free
       K_a4_a1 Free
       K_a4_a2 Free
       K_a4_a3 Free
       K_a4_a5 Free
       K_a4_a6 Free
       K_a4_a7 Free
       K_a4_a8 Free
       K_a4_a9 Free
       K_a5_a0 Free
       K_a5_a1 Free
       K_a5_a2 Free
       K_a5_a3 Free
       K_a5_a4 Free
       K_a5_a6 Free
       K_a5_a7 Free
       K_a5_a8 Free
       K_a5_a9 Free
       K_a6_a0 Free
       K_a6_a1 Free
       K_a6_a2 Free
       K_a6_a3 Free
       K_a6_a4 Free
       K_a6_a5 Free
       K_a6_a7 Free
       K_a6_a8 Free
       K_a6_a9 Free
       K_a7_a0 Free
       K_a7_a1 Free
       K_a7_a2 Free
       K_a7_a3 Free
       K_a7_a4 Free
       K_a7_a5 Free
       K_a7_a6 Free
       K_a7_a8 Free
       K_a7_a9 Free
       K_a8_a0 Free
       K_a8_a1 Free
       K_a8_a2 Free
       K_a8_a3 Free
       K_a8_a4 Free
       K_a8_a5 Free
       K_a8_a6 Free
       K_a8_a7 Free
       K_a8_a9 Free
       K_a9_a0 Free
       K_a9_a1 Free
       K_a9_a2 Free
       K_a9_a3 Free
       K_a9_a4 Free
       K_a9_a5 Free
       K_a9_a6 Free
       K_a9_a7 Free
       K_a9_a8 Free
 0 <= m_a0_proc_0 <= 1
 0 <= m_a0_proc_1 <= 1
 0 <= m_a1_proc_0 <= 1
 0 <= m_a1_proc_1 <= 1
 0 <= m_a2_proc_0 <= 1
 0 <= m_a2_proc_1 <= 1
 0 <= m_a3_proc_1 <= 1
 0 <= m_a4_proc_0 <= 1
 0 <= m_a4_proc_1 <= 1
 0 <= m_a5_proc_0 <= 1
 0 <= m_a5_proc_1 <= 1
 0 <= m_a6_proc_0 <= 1
 0 <= m_a6_proc_1 <= 1
 0 <= m_a7_proc_0 <= 1
 0 <= m_a7_proc_1 <= 1
 0 <= m_a8_proc_0 <= 1
 0 <= m_a8_proc_1 <= 1
 0 <= m_a9_proc_0 <= 1
 0 <= m_a9_proc_1 <= 1

Binaries
 m_a0_proc_0 m_a0_proc_1 m_a1_proc_0 m_a1_proc_1 m_a2_proc_0 m_a2_proc_1
 m_a3_proc_1 m_a4_proc_0 m_a4_proc_1 m_a5_proc_0 m_a5_proc_1 m_a6_proc_0
 m_a6_proc_1 m_a7_proc_0 m_a7_proc_1 m_a8_proc_0 m_a8_proc_1 m_a9_proc_0
 m_a9_proc_1

Generals
 K_a0_a1 K_a0_a2 K_a0_a3 K_a0_a4 K_a0_a5 K_a0_a6 K_a0_a7 K_a0_a8 K_a0_a9 K_a1_a0
 K_a1_a2 K_a1_a3 K_a1_a4 K_a1_a5 K_a1_a6 K_a1_a7 K_a1_a8 K_a1_a9 K_a2_a0 K_a2_a1
 K_a2_a3 K_a2_a4 K_a2_a5 K_a2_a6 K_a2_a7 K_a2_a8 K_a2_a9 K_a3_a0 K_a3_a1 K_a3_a2
 K_a3_a4 K_a3_a5 K_a3_a6 K_a3_a7 K_a3_a8 K_a3_a9 K_a4_a0 K_a4_a1 K_a4_a2 K_a4_a3
 K_a4_a5 K_a4_a6 K_a4_a7 K_a4_a8 K_a4_a9 K_a5_a0 K_a5_a1 K_a5_a2 K_a5_a3 K_a5_a4
 K_a5_a6 K_a5_a7 K_a5_a8 K_a5_a9 K_a6_a0 K_a6_a1 K_a6_a2 K_a6_a3 K_a6_a4 K_a6_a5
 K_a6_a7 K_a6_a8 K_a6_a9 K_a7_a0 K_a7_a1 K_a7_a2 K_a7_a3 K_a7_a4 K_a7_a5 K_a7_a6
 K_a7_a8 K_a7_a9 K_a8_a0 K_a8_a1 K_a8_a2 K_a8_a3 K_a8_a4 K_a8_a5 K_a8_a6 K_a8_a7
 K_a8_a9 K_a9_a0 K_a9_a1 K_a9_a2 K_a9_a3 K_a9_a4 K_a9_a5 K_a9_a6 K_a9_a7 K_a9_a8
End
