benchmark/results/graph__10-1000-0.10-02_8/graph__10-1000-0.10-02_8_Quinton_Monolithic.txt
solution for: Quinton Monolithic
objective: 0.000234221
status: FEASIBLE_SOLUTION(1)
u_a1=0.590
u_a2=0.787
u_a3=2.560
u_a4=0.183
u_a5=0.390
u_a6=2.816
u_a8=0.365
u_a9=0.202
tau=0.000
K_a0_a1=1221
K_a0_a3=-2
K_a0_a4=1
K_a0_a5=2
K_a0_a7=1
K_a1_a0=-1220
K_a1_a2=2
K_a1_a3=-1221
K_a1_a4=1
K_a1_a5=1
K_a1_a6=-2
K_a1_a7=1
K_a1_a8=1
K_a1_a9=1
K_a2_a0=1
K_a2_a1=-1
K_a2_a3=-1
K_a2_a4=1
K_a2_a5=1
K_a2_a6=-1220
K_a2_a7=1
K_a2_a8=1
K_a2_a9=1
K_a3_a0=3
K_a3_a1=1222
K_a3_a2=2
K_a3_a4=1223
K_a3_a5=1223
K_a3_a6=-1221
K_a3_a7=1223
K_a3_a8=3
K_a3_a9=3
K_a4_a3=-1222
K_a4_a6=-2
K_a4_a7=1
K_a4_a8=1
K_a4_a9=1220
K_a5_a0=-1
K_a5_a3=-1222
K_a5_a4=1
K_a5_a6=-2
K_a5_a7=1
K_a5_a8=1
K_a5_a9=1
K_a6_a0=1
K_a6_a1=3
K_a6_a2=1221
K_a6_a3=1222
K_a6_a4=3
K_a6_a5=3
K_a6_a7=3
K_a6_a8=1224
K_a6_a9=1224
K_a7_a3=-1222
K_a7_a6=-2
K_a7_a8=1
K_a7_a9=1
K_a8_a0=1
K_a8_a3=-2
K_a8_a6=-1223
K_a8_a9=1
K_a9_a0=1
K_a9_a3=-2
K_a9_a4=-1219
K_a9_a6=-1223
m_a0_proc_1=1
m_a1_proc_0=1
m_a2_proc_1=1
m_a3_proc_1=1
m_a4_proc_0=1
m_a5_proc_0=1
m_a6_proc_0=1
m_a7_proc_0=1
m_a8_proc_1=1
m_a9_proc_1=1
y_a0_proc_1=0.000
y_a1_proc_0=0.000
y_a2_proc_1=0.000
y_a3_proc_1=0.000
y_a4_proc_0=0.000
y_a4_proc_1=0.000
y_a5_proc_0=0.000
y_a6_proc_0=0.000
y_a7_proc_0=0.000
y_a8_proc_1=0.000
y_a9_proc_1=0.000
